p cnf 150 1890
1 2 3 4 5 0
6 7 8 9 10 0
11 12 13 14 15 0
16 17 18 19 20 0
21 22 23 24 25 0
26 27 28 29 30 0
31 32 33 34 35 0
36 37 38 39 40 0
41 42 43 44 45 0
46 47 48 49 50 0
51 52 53 54 55 0
56 57 58 59 60 0
61 62 63 64 65 0
66 67 68 69 70 0
71 72 73 74 75 0
76 77 78 79 80 0
81 82 83 84 85 0
86 87 88 89 90 0
91 92 93 94 95 0
96 97 98 99 100 0
101 102 103 104 105 0
106 107 108 109 110 0
111 112 113 114 115 0
116 117 118 119 120 0
121 122 123 124 125 0
126 127 128 129 130 0
131 132 133 134 135 0
136 137 138 139 140 0
141 142 143 144 145 0
146 147 148 149 150 0
-1 -2 0
-1 -3 0
-1 -4 0
-1 -5 0
-2 -3 0
-2 -4 0
-2 -5 0
-3 -4 0
-3 -5 0
-4 -5 0
-6 -7 0
-6 -8 0
-6 -9 0
-6 -10 0
-7 -8 0
-7 -9 0
-7 -10 0
-8 -9 0
-8 -10 0
-9 -10 0
-11 -12 0
-11 -13 0
-11 -14 0
-11 -15 0
-12 -13 0
-12 -14 0
-12 -15 0
-13 -14 0
-13 -15 0
-14 -15 0
-16 -17 0
-16 -18 0
-16 -19 0
-16 -20 0
-17 -18 0
-17 -19 0
-17 -20 0
-18 -19 0
-18 -20 0
-19 -20 0
-21 -22 0
-21 -23 0
-21 -24 0
-21 -25 0
-22 -23 0
-22 -24 0
-22 -25 0
-23 -24 0
-23 -25 0
-24 -25 0
-26 -27 0
-26 -28 0
-26 -29 0
-26 -30 0
-27 -28 0
-27 -29 0
-27 -30 0
-28 -29 0
-28 -30 0
-29 -30 0
-31 -32 0
-31 -33 0
-31 -34 0
-31 -35 0
-32 -33 0
-32 -34 0
-32 -35 0
-33 -34 0
-33 -35 0
-34 -35 0
-36 -37 0
-36 -38 0
-36 -39 0
-36 -40 0
-37 -38 0
-37 -39 0
-37 -40 0
-38 -39 0
-38 -40 0
-39 -40 0
-41 -42 0
-41 -43 0
-41 -44 0
-41 -45 0
-42 -43 0
-42 -44 0
-42 -45 0
-43 -44 0
-43 -45 0
-44 -45 0
-46 -47 0
-46 -48 0
-46 -49 0
-46 -50 0
-47 -48 0
-47 -49 0
-47 -50 0
-48 -49 0
-48 -50 0
-49 -50 0
-51 -52 0
-51 -53 0
-51 -54 0
-51 -55 0
-52 -53 0
-52 -54 0
-52 -55 0
-53 -54 0
-53 -55 0
-54 -55 0
-56 -57 0
-56 -58 0
-56 -59 0
-56 -60 0
-57 -58 0
-57 -59 0
-57 -60 0
-58 -59 0
-58 -60 0
-59 -60 0
-61 -62 0
-61 -63 0
-61 -64 0
-61 -65 0
-62 -63 0
-62 -64 0
-62 -65 0
-63 -64 0
-63 -65 0
-64 -65 0
-66 -67 0
-66 -68 0
-66 -69 0
-66 -70 0
-67 -68 0
-67 -69 0
-67 -70 0
-68 -69 0
-68 -70 0
-69 -70 0
-71 -72 0
-71 -73 0
-71 -74 0
-71 -75 0
-72 -73 0
-72 -74 0
-72 -75 0
-73 -74 0
-73 -75 0
-74 -75 0
-76 -77 0
-76 -78 0
-76 -79 0
-76 -80 0
-77 -78 0
-77 -79 0
-77 -80 0
-78 -79 0
-78 -80 0
-79 -80 0
-81 -82 0
-81 -83 0
-81 -84 0
-81 -85 0
-82 -83 0
-82 -84 0
-82 -85 0
-83 -84 0
-83 -85 0
-84 -85 0
-86 -87 0
-86 -88 0
-86 -89 0
-86 -90 0
-87 -88 0
-87 -89 0
-87 -90 0
-88 -89 0
-88 -90 0
-89 -90 0
-91 -92 0
-91 -93 0
-91 -94 0
-91 -95 0
-92 -93 0
-92 -94 0
-92 -95 0
-93 -94 0
-93 -95 0
-94 -95 0
-96 -97 0
-96 -98 0
-96 -99 0
-96 -100 0
-97 -98 0
-97 -99 0
-97 -100 0
-98 -99 0
-98 -100 0
-99 -100 0
-101 -102 0
-101 -103 0
-101 -104 0
-101 -105 0
-102 -103 0
-102 -104 0
-102 -105 0
-103 -104 0
-103 -105 0
-104 -105 0
-106 -107 0
-106 -108 0
-106 -109 0
-106 -110 0
-107 -108 0
-107 -109 0
-107 -110 0
-108 -109 0
-108 -110 0
-109 -110 0
-111 -112 0
-111 -113 0
-111 -114 0
-111 -115 0
-112 -113 0
-112 -114 0
-112 -115 0
-113 -114 0
-113 -115 0
-114 -115 0
-116 -117 0
-116 -118 0
-116 -119 0
-116 -120 0
-117 -118 0
-117 -119 0
-117 -120 0
-118 -119 0
-118 -120 0
-119 -120 0
-121 -122 0
-121 -123 0
-121 -124 0
-121 -125 0
-122 -123 0
-122 -124 0
-122 -125 0
-123 -124 0
-123 -125 0
-124 -125 0
-126 -127 0
-126 -128 0
-126 -129 0
-126 -130 0
-127 -128 0
-127 -129 0
-127 -130 0
-128 -129 0
-128 -130 0
-129 -130 0
-131 -132 0
-131 -133 0
-131 -134 0
-131 -135 0
-132 -133 0
-132 -134 0
-132 -135 0
-133 -134 0
-133 -135 0
-134 -135 0
-136 -137 0
-136 -138 0
-136 -139 0
-136 -140 0
-137 -138 0
-137 -139 0
-137 -140 0
-138 -139 0
-138 -140 0
-139 -140 0
-141 -142 0
-141 -143 0
-141 -144 0
-141 -145 0
-142 -143 0
-142 -144 0
-142 -145 0
-143 -144 0
-143 -145 0
-144 -145 0
-146 -147 0
-146 -148 0
-146 -149 0
-146 -150 0
-147 -148 0
-147 -149 0
-147 -150 0
-148 -149 0
-148 -150 0
-149 -150 0
-2 -34 0
-1 -31 0
-5 -31 0
-4 -35 0
-4 -32 0
-5 -32 0
-5 -33 0
-1 -33 0
-2 -35 0
-3 -32 0
-1 -34 0
-3 -31 0
-3 -55 0
-3 -52 0
-1 -54 0
-5 -55 0
-1 -53 0
-4 -55 0
-5 -53 0
-2 -53 0
-4 -51 0
-5 -51 0
-3 -51 0
-1 -55 0
-5 -56 0
-5 -58 0
-5 -59 0
-3 -59 0
-2 -56 0
-3 -56 0
-1 -56 0
-1 -58 0
-2 -60 0
-2 -59 0
-4 -58 0
-4 -59 0
-3 -69 0
-3 -66 0
-2 -66 0
-1 -69 0
-4 -67 0
-3 -70 0
-1 -68 0
-2 -69 0
-1 -70 0
-1 -67 0
-5 -70 0
-3 -67 0
-5 -77 0
-5 -78 0
-5 -79 0
-3 -80 0
-3 -76 0
-4 -77 0
-1 -77 0
-3 -78 0
-3 -77 0
-4 -78 0
-5 -76 0
-4 -79 0
-3 -110 0
-4 -108 0
-4 -110 0
-5 -110 0
-4 -107 0
-5 -109 0
-3 -108 0
-4 -109 0
-2 -110 0
-1 -106 0
-1 -109 0
-1 -107 0
-1 -115 0
-5 -112 0
-2 -111 0
-3 -115 0
-4 -114 0
-1 -112 0
-3 -113 0
-4 -112 0
-5 -114 0
-5 -111 0
-3 -112 0
-2 -114 0
-2 -116 0
-3 -117 0
-3 -118 0
-2 -120 0
-1 -120 0
-2 -117 0
-3 -120 0
-4 -117 0
-2 -119 0
-5 -116 0
-4 -119 0
-1 -117 0
-6 -13 0
-8 -13 0
-8 -12 0
-6 -14 0
-6 -15 0
-7 -12 0
-10 -12 0
-8 -14 0
-9 -11 0
-9 -13 0
-7 -15 0
-7 -11 0
-9 -17 0
-10 -20 0
-6 -18 0
-10 -17 0
-7 -16 0
-7 -19 0
-6 -20 0
-9 -16 0
-8 -19 0
-8 -17 0
-9 -18 0
-10 -18 0
-9 -30 0
-7 -27 0
-6 -27 0
-8 -28 0
-9 -27 0
-10 -28 0
-8 -29 0
-8 -30 0
-8 -26 0
-7 -26 0
-7 -28 0
-6 -29 0
-10 -39 0
-10 -38 0
-6 -40 0
-10 -36 0
-8 -39 0
-6 -38 0
-10 -37 0
-9 -39 0
-9 -36 0
-6 -36 0
-7 -38 0
-8 -36 0
-9 -75 0
-7 -72 0
-7 -75 0
-10 -75 0
-8 -73 0
-10 -74 0
-9 -72 0
-10 -72 0
-8 -75 0
-6 -75 0
-6 -74 0
-8 -74 0
-6 -80 0
-6 -76 0
-6 -79 0
-7 -76 0
-6 -78 0
-7 -77 0
-8 -78 0
-9 -76 0
-9 -77 0
-9 -79 0
-10 -76 0
-8 -77 0
-6 -99 0
-10 -99 0
-9 -98 0
-8 -97 0
-9 -97 0
-7 -99 0
-6 -97 0
-9 -99 0
-6 -100 0
-6 -98 0
-10 -97 0
-7 -100 0
-9 -114 0
-10 -114 0
-9 -111 0
-7 -114 0
-6 -113 0
-9 -113 0
-9 -112 0
-10 -115 0
-8 -114 0
-6 -111 0
-7 -113 0
-6 -112 0
-9 -135 0
-6 -132 0
-8 -133 0
-8 -135 0
-6 -133 0
-7 -132 0
-6 -131 0
-8 -131 0
-7 -134 0
-9 -131 0
-9 -132 0
-9 -133 0
-10 -142 0
-8 -145 0
-7 -143 0
-6 -142 0
-6 -145 0
-10 -145 0
-9 -142 0
-7 -141 0
-9 -141 0
-7 -145 0
-6 -141 0
-8 -142 0
-12 -21 0
-12 -22 0
-11 -22 0
-11 -25 0
-14 -25 0
-14 -21 0
-11 -23 0
-15 -25 0
-12 -25 0
-15 -24 0
-13 -21 0
-15 -22 0
-11 -33 0
-12 -35 0
-11 -35 0
-13 -34 0
-11 -32 0
-13 -35 0
-15 -35 0
-15 -33 0
-13 -33 0
-13 -31 0
-14 -33 0
-15 -31 0
-14 -61 0
-12 -65 0
-14 -64 0
-12 -63 0
-12 -64 0
-14 -62 0
-11 -63 0
-13 -63 0
-12 -61 0
-13 -64 0
-13 -65 0
-14 -65 0
-11 -84 0
-13 -81 0
-11 -83 0
-12 -83 0
-15 -82 0
-15 -84 0
-11 -82 0
-14 -83 0
-11 -85 0
-13 -82 0
-14 -81 0
-13 -84 0
-12 -97 0
-15 -97 0
-12 -98 0
-14 -97 0
-11 -97 0
-13 -97 0
-11 -100 0
-14 -98 0
-13 -99 0
-11 -98 0
-15 -99 0
-14 -99 0
-13 -105 0
-12 -105 0
-13 -104 0
-15 -105 0
-11 -103 0
-12 -103 0
-14 -105 0
-13 -102 0
-15 -101 0
-11 -105 0
-12 -104 0
-14 -103 0
-11 -109 0
-13 -110 0
-14 -108 0
-15 -107 0
-13 -108 0
-13 -109 0
-15 -109 0
-12 -108 0
-14 -107 0
-12 -110 0
-14 -106 0
-14 -110 0
-14 -136 0
-11 -136 0
-14 -140 0
-11 -140 0
-13 -138 0
-12 -138 0
-12 -136 0
-13 -140 0
-14 -137 0
-13 -137 0
-15 -136 0
-15 -137 0
-13 -142 0
-12 -144 0
-14 -144 0
-11 -143 0
-11 -141 0
-12 -143 0
-15 -141 0
-12 -141 0
-11 -145 0
-14 -143 0
-14 -142 0
-11 -144 0
-20 -25 0
-20 -24 0
-17 -21 0
-16 -24 0
-19 -22 0
-18 -21 0
-18 -23 0
-19 -23 0
-20 -22 0
-19 -24 0
-17 -23 0
-16 -22 0
-19 -45 0
-20 -45 0
-18 -44 0
-16 -41 0
-16 -44 0
-18 -45 0
-18 -43 0
-20 -41 0
-19 -42 0
-20 -43 0
-17 -45 0
-19 -43 0
-16 -72 0
-16 -73 0
-20 -74 0
-18 -72 0
-20 -73 0
-18 -74 0
-18 -71 0
-19 -75 0
-20 -72 0
-16 -74 0
-19 -73 0
-20 -71 0
-19 -84 0
-20 -84 0
-18 -82 0
-19 -81 0
-20 -82 0
-20 -85 0
-17 -81 0
-20 -83 0
-19 -83 0
-19 -85 0
-16 -84 0
-17 -83 0
-19 -100 0
-19 -97 0
-20 -97 0
-17 -100 0
-19 -96 0
-20 -96 0
-19 -98 0
-17 -97 0
-17 -99 0
-18 -96 0
-18 -100 0
-17 -98 0
-18 -101 0
-17 -101 0
-16 -102 0
-17 -105 0
-16 -104 0
-19 -105 0
-16 -105 0
-18 -103 0
-20 -104 0
-20 -105 0
-16 -103 0
-19 -101 0
-16 -121 0
-20 -122 0
-19 -124 0
-19 -123 0
-20 -121 0
-16 -125 0
-20 -125 0
-17 -124 0
-17 -125 0
-19 -125 0
-20 -123 0
-18 -122 0
-18 -130 0
-18 -128 0
-17 -130 0
-19 -129 0
-18 -129 0
-20 -128 0
-20 -130 0
-16 -127 0
-18 -126 0
-16 -129 0
-17 -128 0
-20 -129 0
-17 -134 0
-18 -133 0
-19 -132 0
-17 -133 0
-20 -135 0
-17 -132 0
-16 -135 0
-20 -134 0
-16 -134 0
-18 -134 0
-17 -131 0
-19 -131 0
-18 -139 0
-19 -139 0
-18 -140 0
-16 -137 0
-18 -137 0
-17 -136 0
-17 -137 0
-19 -138 0
-18 -138 0
-20 -140 0
-17 -140 0
-16 -139 0
-20 -144 0
-18 -143 0
-17 -141 0
-19 -141 0
-19 -143 0
-20 -142 0
-17 -145 0
-19 -145 0
-19 -142 0
-17 -143 0
-20 -141 0
-18 -141 0
-24 -41 0
-22 -41 0
-25 -44 0
-21 -41 0
-24 -44 0
-25 -43 0
-24 -43 0
-23 -45 0
-21 -42 0
-25 -45 0
-22 -43 0
-23 -44 0
-23 -55 0
-21 -54 0
-24 -53 0
-21 -53 0
-21 -52 0
-25 -52 0
-25 -54 0
-24 -54 0
-23 -52 0
-24 -52 0
-22 -53 0
-22 -54 0
-23 -62 0
-22 -64 0
-25 -65 0
-25 -64 0
-24 -63 0
-21 -61 0
-22 -62 0
-22 -65 0
-24 -64 0
-23 -63 0
-24 -65 0
-22 -63 0
-25 -84 0
-21 -83 0
-25 -85 0
-24 -85 0
-22 -83 0
-22 -81 0
-24 -84 0
-24 -82 0
-23 -81 0
-25 -83 0
-23 -83 0
-25 -81 0
-21 -98 0
-24 -96 0
-24 -97 0
-22 -96 0
-25 -99 0
-24 -98 0
-22 -100 0
-22 -98 0
-21 -97 0
-25 -98 0
-22 -97 0
-22 -99 0
-21 -144 0
-23 -142 0
-24 -142 0
-23 -141 0
-24 -145 0
-21 -143 0
-21 -145 0
-22 -141 0
-24 -144 0
-22 -145 0
-25 -143 0
-23 -144 0
-24 -148 0
-25 -146 0
-24 -150 0
-21 -146 0
-23 -150 0
-24 -147 0
-23 -147 0
-25 -148 0
-22 -148 0
-22 -146 0
-23 -149 0
-21 -150 0
-29 -33 0
-30 -32 0
-27 -35 0
-27 -33 0
-30 -33 0
-30 -34 0
-28 -32 0
-29 -31 0
-26 -33 0
-26 -32 0
-27 -31 0
-28 -34 0
-27 -52 0
-29 -54 0
-28 -52 0
-27 -51 0
-30 -55 0
-26 -53 0
-27 -53 0
-26 -55 0
-26 -51 0
-30 -52 0
-28 -51 0
-28 -54 0
-28 -84 0
-27 -85 0
-28 -83 0
-28 -85 0
-29 -84 0
-26 -82 0
-27 -82 0
-27 -81 0
-28 -82 0
-28 -81 0
-27 -84 0
-29 -82 0
-26 -102 0
-28 -102 0
-30 -102 0
-27 -101 0
-28 -104 0
-29 -103 0
-27 -102 0
-27 -104 0
-29 -104 0
-30 -105 0
-30 -101 0
-26 -105 0
-26 -112 0
-26 -114 0
-29 -115 0
-29 -114 0
-28 -112 0
-28 -115 0
-29 -113 0
-27 -111 0
-27 -115 0
-30 -114 0
-29 -111 0
-26 -111 0
-29 -128 0
-30 -130 0
-30 -127 0
-27 -130 0
-26 -126 0
-29 -127 0
-29 -126 0
-27 -126 0
-30 -126 0
-27 -128 0
-29 -130 0
-28 -127 0
-27 -140 0
-30 -139 0
-26 -140 0
-27 -138 0
-28 -136 0
-29 -138 0
-26 -137 0
-26 -139 0
-29 -136 0
-28 -139 0
-30 -140 0
-29 -140 0
-35 -45 0
-31 -41 0
-33 -41 0
-32 -41 0
-32 -42 0
-34 -45 0
-34 -44 0
-33 -45 0
-34 -43 0
-32 -43 0
-31 -44 0
-31 -43 0
-34 -47 0
-33 -47 0
-32 -48 0
-34 -49 0
-35 -48 0
-32 -46 0
-34 -50 0
-35 -47 0
-31 -49 0
-33 -46 0
-33 -49 0
-35 -46 0
-31 -120 0
-35 -119 0
-34 -118 0
-32 -116 0
-31 -118 0
-32 -118 0
-32 -117 0
-33 -116 0
-31 -116 0
-32 -120 0
-32 -119 0
-35 -118 0
-38 -46 0
-39 -50 0
-36 -48 0
-37 -48 0
-36 -46 0
-40 -46 0
-39 -47 0
-36 -47 0
-37 -46 0
-37 -49 0
-40 -48 0
-39 -48 0
-39 -60 0
-37 -58 0
-38 -60 0
-39 -57 0
-36 -58 0
-40 -57 0
-37 -59 0
-36 -59 0
-39 -56 0
-38 -56 0
-36 -57 0
-40 -56 0
-40 -103 0
-40 -104 0
-36 -102 0
-37 -105 0
-38 -102 0
-38 -105 0
-38 -101 0
-39 -102 0
-39 -103 0
-40 -105 0
-39 -101 0
-36 -105 0
-38 -117 0
-40 -119 0
-36 -118 0
-36 -117 0
-39 -118 0
-36 -116 0
-37 -118 0
-40 -116 0
-37 -119 0
-36 -119 0
-36 -120 0
-38 -120 0
-38 -137 0
-36 -138 0
-39 -140 0
-39 -136 0
-38 -140 0
-37 -140 0
-39 -138 0
-39 -137 0
-36 -136 0
-40 -137 0
-38 -138 0
-36 -140 0
-36 -142 0
-37 -143 0
-36 -145 0
-37 -144 0
-36 -141 0
-40 -143 0
-39 -142 0
-40 -142 0
-37 -142 0
-38 -141 0
-39 -145 0
-39 -141 0
-37 -146 0
-36 -146 0
-38 -148 0
-40 -147 0
-40 -150 0
-39 -147 0
-37 -149 0
-37 -150 0
-39 -149 0
-38 -146 0
-39 -146 0
-37 -147 0
-43 -50 0
-45 -46 0
-43 -47 0
-44 -50 0
-44 -48 0
-42 -46 0
-43 -48 0
-43 -49 0
-41 -48 0
-42 -50 0
-42 -47 0
-43 -46 0
-43 -65 0
-42 -64 0
-42 -63 0
-41 -61 0
-44 -64 0
-43 -64 0
-44 -61 0
-42 -61 0
-44 -62 0
-43 -63 0
-43 -62 0
-45 -65 0
-42 -73 0
-44 -73 0
-45 -75 0
-45 -72 0
-44 -71 0
-43 -73 0
-43 -72 0
-41 -72 0
-41 -73 0
-45 -74 0
-41 -74 0
-42 -74 0
-42 -98 0
-45 -98 0
-43 -99 0
-43 -98 0
-44 -96 0
-45 -100 0
-41 -98 0
-45 -96 0
-41 -96 0
-42 -100 0
-45 -97 0
-44 -98 0
-43 -103 0
-42 -104 0
-43 -105 0
-44 -103 0
-44 -101 0
-41 -101 0
-43 -101 0
-42 -101 0
-43 -102 0
-41 -105 0
-44 -102 0
-42 -103 0
-42 -115 0
-43 -114 0
-45 -112 0
-45 -111 0
-41 -114 0
-41 -113 0
-44 -113 0
-43 -113 0
-42 -113 0
-44 -115 0
-43 -112 0
-43 -111 0
-46 -54 0
-49 -55 0
-47 -55 0
-49 -54 0
-50 -55 0
-46 -53 0
-47 -54 0
-47 -53 0
-49 -51 0
-49 -52 0
-48 -55 0
-46 -55 0
-46 -75 0
-50 -72 0
-46 -74 0
-48 -73 0
-50 -75 0
-46 -73 0
-49 -74 0
-48 -71 0
-49 -72 0
-46 -72 0
-47 -73 0
-48 -74 0
-46 -79 0
-46 -76 0
-50 -79 0
-46 -77 0
-49 -77 0
-47 -76 0
-49 -76 0
-48 -77 0
-50 -78 0
-46 -80 0
-47 -80 0
-47 -77 0
-47 -87 0
-50 -90 0
-49 -88 0
-48 -89 0
-48 -90 0
-47 -90 0
-48 -86 0
-48 -87 0
-49 -89 0
-46 -88 0
-49 -87 0
-46 -90 0
-49 -97 0
-50 -99 0
-46 -100 0
-50 -97 0
-48 -98 0
-47 -100 0
-49 -98 0
-50 -98 0
-48 -99 0
-46 -98 0
-46 -96 0
-50 -96 0
-47 -102 0
-47 -101 0
-48 -104 0
-46 -103 0
-47 -105 0
-48 -103 0
-50 -104 0
-49 -101 0
-48 -102 0
-48 -101 0
-49 -105 0
-46 -105 0
-48 -120 0
-49 -117 0
-46 -119 0
-47 -118 0
-50 -120 0
-46 -118 0
-48 -117 0
-48 -116 0
-48 -119 0
-50 -119 0
-46 -116 0
-46 -117 0
-46 -123 0
-50 -122 0
-50 -123 0
-48 -122 0
-46 -122 0
-49 -125 0
-50 -124 0
-47 -125 0
-49 -121 0
-48 -125 0
-49 -123 0
-48 -123 0
-49 -136 0
-47 -140 0
-50 -139 0
-46 -136 0
-49 -137 0
-47 -136 0
-48 -140 0
-46 -139 0
-50 -137 0
-49 -138 0
-47 -139 0
-46 -140 0
-55 -64 0
-55 -63 0
-55 -61 0
-54 -65 0
-53 -64 0
-54 -64 0
-52 -61 0
-51 -61 0
-52 -62 0
-51 -64 0
-53 -62 0
-52 -63 0
-53 -67 0
-55 -67 0
-54 -68 0
-51 -68 0
-55 -66 0
-53 -66 0
-54 -66 0
-52 -66 0
-55 -69 0
-51 -69 0
-52 -67 0
-53 -68 0
-53 -72 0
-54 -74 0
-52 -73 0
-54 -72 0
-51 -72 0
-51 -74 0
-55 -74 0
-54 -75 0
-51 -73 0
-52 -74 0
-51 -75 0
-54 -71 0
-54 -106 0
-53 -106 0
-55 -107 0
-52 -108 0
-53 -110 0
-54 -108 0
-55 -108 0
-52 -106 0
-51 -109 0
-53 -108 0
-51 -107 0
-51 -110 0
-53 -113 0
-54 -113 0
-51 -115 0
-53 -112 0
-53 -111 0
-52 -115 0
-55 -115 0
-54 -114 0
-55 -113 0
-54 -111 0
-55 -112 0
-52 -111 0
-55 -119 0
-53 -117 0
-51 -117 0
-51 -118 0
-54 -118 0
-55 -117 0
-51 -119 0
-52 -120 0
-51 -116 0
-55 -120 0
-51 -120 0
-53 -118 0
-51 -125 0
-51 -124 0
-53 -123 0
-53 -125 0
-53 -122 0
-54 -125 0
-54 -123 0
-52 -124 0
-53 -124 0
-52 -123 0
-51 -122 0
-55 -122 0
-55 -128 0
-51 -129 0
-55 -129 0
-52 -127 0
-53 -127 0
-54 -128 0
-53 -129 0
-54 -130 0
-52 -129 0
-51 -130 0
-51 -128 0
-55 -130 0
-57 -63 0
-56 -61 0
-58 -62 0
-59 -64 0
-58 -64 0
-58 -63 0
-60 -65 0
-56 -62 0
-57 -61 0
-56 -64 0
-60 -61 0
-60 -63 0
-57 -68 0
-60 -67 0
-56 -70 0
-58 -68 0
-59 -68 0
-59 -66 0
-56 -66 0
-59 -69 0
-58 -69 0
-60 -68 0
-56 -68 0
-57 -67 0
-60 -85 0
-57 -82 0
-56 -85 0
-59 -83 0
-56 -82 0
-58 -81 0
-57 -85 0
-57 -81 0
-58 -85 0
-59 -85 0
-56 -83 0
-60 -81 0
-58 -101 0
-57 -105 0
-56 -103 0
-60 -102 0
-59 -103 0
-57 -104 0
-57 -103 0
-60 -101 0
-56 -105 0
-57 -101 0
-56 -102 0
-58 -104 0
-56 -120 0
-59 -120 0
-59 -117 0
-57 -118 0
-58 -117 0
-56 -118 0
-58 -119 0
-58 -120 0
-57 -117 0
-59 -116 0
-60 -117 0
-60 -116 0
-58 -133 0
-57 -134 0
-60 -132 0
-59 -134 0
-59 -135 0
-59 -132 0
-58 -132 0
-59 -131 0
-57 -133 0
-56 -132 0
-58 -131 0
-56 -134 0
-60 -145 0
-59 -142 0
-60 -144 0
-57 -145 0
-58 -142 0
-57 -142 0
-57 -141 0
-60 -143 0
-59 -145 0
-59 -141 0
-59 -144 0
-58 -145 0
-65 -99 0
-63 -100 0
-65 -96 0
-63 -98 0
-62 -98 0
-62 -97 0
-64 -100 0
-61 -98 0
-61 -96 0
-62 -99 0
-61 -99 0
-63 -99 0
-65 -104 0
-63 -105 0
-62 -101 0
-63 -101 0
-62 -103 0
-64 -102 0
-62 -102 0
-62 -104 0
-64 -104 0
-65 -103 0
-61 -103 0
-61 -104 0
-64 -145 0
-65 -141 0
-62 -145 0
-63 -144 0
-62 -141 0
-63 -143 0
-61 -141 0
-61 -142 0
-62 -143 0
-62 -144 0
-63 -142 0
-63 -141 0
-66 -82 0
-69 -82 0
-69 -84 0
-67 -81 0
-69 -81 0
-67 -82 0
-66 -83 0
-69 -85 0
-69 -83 0
-68 -81 0
-68 -85 0
-67 -85 0
-67 -90 0
-70 -90 0
-69 -90 0
-69 -87 0
-68 -88 0
-70 -89 0
-67 -87 0
-66 -87 0
-69 -88 0
-67 -86 0
-68 -87 0
-66 -86 0
-66 -107 0
-67 -109 0
-70 -110 0
-70 -108 0
-68 -107 0
-70 -107 0
-70 -109 0
-68 -106 0
-67 -110 0
-68 -110 0
-66 -106 0
-68 -109 0
-69 -124 0
-70 -125 0
-68 -122 0
-66 -121 0
-70 -124 0
-69 -125 0
-66 -124 0
-67 -123 0
-66 -122 0
-68 -123 0
-68 -125 0
-68 -121 0
-69 -128 0
-68 -126 0
-68 -129 0
-66 -127 0
-67 -130 0
-66 -126 0
-69 -130 0
-66 -130 0
-67 -127 0
-68 -130 0
-70 -128 0
-67 -126 0
-69 -149 0
-67 -148 0
-69 -150 0
-70 -148 0
-68 -146 0
-68 -149 0
-66 -146 0
-67 -147 0
-70 -146 0
-66 -150 0
-67 -149 0
-66 -149 0
-71 -105 0
-72 -104 0
-72 -101 0
-71 -103 0
-75 -103 0
-75 -105 0
-74 -101 0
-71 -101 0
-72 -103 0
-71 -102 0
-73 -101 0
-73 -105 0
-71 -121 0
-75 -122 0
-73 -123 0
-75 -125 0
-71 -123 0
-73 -125 0
-75 -124 0
-74 -121 0
-74 -125 0
-74 -123 0
-71 -124 0
-73 -121 0
-78 -94 0
-80 -94 0
-77 -93 0
-77 -94 0
-76 -95 0
-77 -91 0
-79 -94 0
-79 -91 0
-76 -92 0
-80 -95 0
-78 -92 0
-80 -92 0
-80 -105 0
-80 -103 0
-78 -104 0
-78 -103 0
-78 -101 0
-77 -102 0
-76 -103 0
-80 -104 0
-77 -104 0
-79 -104 0
-77 -105 0
-78 -102 0
-79 -133 0
-78 -131 0
-78 -134 0
-79 -135 0
-76 -132 0
-79 -134 0
-80 -132 0
-80 -131 0
-76 -135 0
-77 -135 0
-80 -134 0
-79 -132 0
-79 -146 0
-79 -150 0
-79 -147 0
-77 -147 0
-77 -149 0
-77 -148 0
-78 -150 0
-80 -149 0
-80 -150 0
-76 -148 0
-78 -147 0
-78 -149 0
-85 -86 0
-84 -87 0
-83 -86 0
-83 -90 0
-84 -90 0
-82 -89 0
-81 -90 0
-85 -88 0
-82 -87 0
-82 -88 0
-83 -89 0
-83 -87 0
-83 -97 0
-81 -96 0
-84 -98 0
-85 -98 0
-83 -99 0
-84 -96 0
-81 -98 0
-85 -96 0
-85 -100 0
-81 -100 0
-81 -97 0
-81 -99 0
-84 -115 0
-82 -113 0
-83 -111 0
-85 -114 0
-82 -111 0
-85 -115 0
-81 -111 0
-81 -114 0
-85 -111 0
-81 -113 0
-82 -112 0
-84 -114 0
-82 -116 0
-82 -120 0
-81 -120 0
-83 -117 0
-83 -118 0
-84 -116 0
-85 -120 0
-84 -118 0
-81 -118 0
-82 -117 0
-81 -117 0
-82 -119 0
-87 -91 0
-87 -94 0
-89 -94 0
-90 -93 0
-88 -91 0
-88 -93 0
-88 -94 0
-86 -95 0
-86 -93 0
-90 -92 0
-90 -95 0
-88 -95 0
-90 -100 0
-90 -99 0
-86 -100 0
-89 -96 0
-89 -99 0
-88 -100 0
-90 -97 0
-87 -96 0
-86 -96 0
-88 -97 0
-86 -97 0
-90 -96 0
-90 -124 0
-88 -123 0
-86 -122 0
-87 -124 0
-90 -125 0
-86 -125 0
-86 -121 0
-89 -124 0
-90 -122 0
-86 -123 0
-89 -123 0
-87 -123 0
-87 -140 0
-86 -136 0
-88 -140 0
-88 -139 0
-89 -137 0
-86 -138 0
-87 -139 0
-90 -136 0
-88 -138 0
-88 -137 0
-86 -139 0
-90 -139 0
-92 -130 0
-91 -130 0
-95 -129 0
-93 -126 0
-94 -129 0
-91 -129 0
-92 -127 0
-95 -128 0
-91 -128 0
-93 -128 0
-94 -128 0
-91 -126 0
-96 -117 0
-98 -117 0
-96 -118 0
-97 -118 0
-100 -117 0
-98 -120 0
-96 -119 0
-99 -117 0
-100 -119 0
-100 -118 0
-98 -119 0
-99 -120 0
-99 -124 0
-96 -121 0
-96 -123 0
-100 -122 0
-96 -125 0
-99 -125 0
-100 -124 0
-96 -124 0
-99 -123 0
-98 -125 0
-100 -121 0
-99 -122 0
-99 -129 0
-98 -127 0
-97 -127 0
-98 -126 0
-98 -128 0
-96 -128 0
-96 -126 0
-99 -126 0
-97 -126 0
-99 -128 0
-100 -128 0
-99 -130 0
-99 -145 0
-99 -143 0
-98 -142 0
-96 -144 0
-97 -143 0
-100 -143 0
-100 -141 0
-97 -141 0
-98 -143 0
-96 -141 0
-96 -142 0
-99 -142 0
-100 -149 0
-98 -150 0
-96 -147 0
-98 -146 0
-96 -150 0
-99 -147 0
-99 -149 0
-96 -148 0
-98 -147 0
-99 -146 0
-98 -148 0
-98 -149 0
-102 -114 0
-105 -112 0
-104 -115 0
-103 -113 0
-105 -113 0
-104 -114 0
-105 -111 0
-103 -111 0
-102 -113 0
-104 -111 0
-104 -112 0
-101 -111 0
-101 -138 0
-105 -138 0
-102 -139 0
-101 -140 0
-103 -140 0
-103 -138 0
-105 -137 0
-103 -136 0
-103 -137 0
-102 -137 0
-101 -139 0
-102 -140 0
-110 -138 0
-106 -137 0
-106 -140 0
-109 -140 0
-107 -138 0
-109 -137 0
-109 -136 0
-107 -136 0
-110 -139 0
-109 -138 0
-106 -139 0
-108 -140 0
-113 -117 0
-111 -120 0
-111 -119 0
-111 -118 0
-113 -119 0
-113 -120 0
-115 -120 0
-115 -117 0
-114 -116 0
-112 -120 0
-111 -116 0
-112 -118 0
-113 -128 0
-113 -126 0
-114 -127 0
-112 -127 0
-112 -129 0
-114 -128 0
-114 -130 0
-115 -130 0
-112 -130 0
-112 -128 0
-115 -129 0
-115 -127 0
-112 -142 0
-114 -141 0
-115 -144 0
-115 -145 0
-112 -143 0
-114 -142 0
-111 -144 0
-113 -142 0
-113 -144 0
-114 -145 0
-113 -145 0
-114 -143 0
-123 -133 0
-122 -133 0
-125 -135 0
-122 -131 0
-125 -132 0
-123 -134 0
-123 -135 0
-124 -131 0
-122 -134 0
-121 -132 0
-124 -134 0
-124 -133 0
-133 -149 0
-133 -150 0
-132 -147 0
-131 -150 0
-135 -148 0
-133 -147 0
-134 -146 0
-131 -147 0
-135 -146 0
-132 -150 0
-134 -150 0
-135 -150 0
-137 -141 0
-137 -144 0
-137 -142 0
-138 -144 0
-139 -142 0
-139 -141 0
-138 -141 0
-136 -145 0
-136 -143 0
-140 -143 0
-137 -145 0
-136 -142 0
